Academic license - for non-commercial use only - expires 2022-11-10
Using license file /home/benedond/Apps/gurobi/gurobi950/gurobi.lic
Using gurobi.env file
Set parameter Threads to value 1
Changed value of parameter TimeLimit to 1200.0
   Prev: inf  Min: 0.0  Max: inf  Default: inf
Gurobi Optimizer version 9.1.2 build v9.1.2rc0 (linux64)
Thread count: 2 physical cores, 4 logical processors, using up to 1 threads
Optimize a model with 1508 rows, 1382 columns and 6624 nonzeros
Model fingerprint: 0x601f8d4f
Variable types: 50 continuous, 1332 integer (1332 binary)
Coefficient statistics:
  Matrix range     [2e-01, 3e+02]
  Objective range  [1e-02, 3e-01]
  Bounds range     [1e+00, 1e+00]
  RHS range        [1e+00, 1e+03]
Presolve removed 157 rows and 66 columns
Presolve time: 0.03s
Presolved: 1351 rows, 1316 columns, 6248 nonzeros
Variable types: 49 continuous, 1267 integer (1267 binary)

Root relaxation: objective 2.043526e+00, 1612 iterations, 0.03 seconds

    Nodes    |    Current Node    |     Objective Bounds      |     Work
 Expl Unexpl |  Obj  Depth IntInf | Incumbent    BestBd   Gap | It/Node Time

     0     0    2.04353    0  162          -    2.04353      -     -    0s
     0     0    2.19037    0  117          -    2.19037      -     -    0s
     0     0    2.19516    0  117          -    2.19516      -     -    0s
     0     0    2.25860    0  123          -    2.25860      -     -    0s
     0     0    2.27119    0  132          -    2.27119      -     -    0s
     0     0    2.34982    0  123          -    2.34982      -     -    0s
H    0     0                       3.8082807    2.34982  38.3%     -    0s
H    0     0                       3.5155263    2.34982  33.2%     -    0s
     0     0    2.38380    0  113    3.51553    2.38380  32.2%     -    0s
     0     0    2.39049    0  119    3.51553    2.39049  32.0%     -    0s
     0     0    2.39263    0  109    3.51553    2.39263  31.9%     -    0s
     0     0    2.39333    0  107    3.51553    2.39333  31.9%     -    0s
     0     0    2.39353    0  109    3.51553    2.39353  31.9%     -    0s
     0     0    2.39358    0  109    3.51553    2.39358  31.9%     -    0s
     0     0    2.44673    0  140    3.51553    2.44673  30.4%     -    0s
H    0     0                       3.4807456    2.44673  29.7%     -    0s
     0     0    2.46427    0  145    3.48075    2.46427  29.2%     -    0s
     0     0    2.46506    0  122    3.48075    2.46506  29.2%     -    0s
     0     0    2.46554    0  117    3.48075    2.46554  29.2%     -    0s
     0     0    2.46594    0  121    3.48075    2.46594  29.2%     -    0s
     0     0    2.46613    0  119    3.48075    2.46613  29.1%     -    0s
     0     0    2.48714    0  153    3.48075    2.48714  28.5%     -    0s
     0     0    2.49241    0  149    3.48075    2.49241  28.4%     -    0s
     0     0    2.49263    0  152    3.48075    2.49263  28.4%     -    0s
     0     0    2.49731    0  126    3.48075    2.49731  28.3%     -    0s
H    0     0                       3.4676052    2.49731  28.0%     -    0s
     0     0    2.50063    0  151    3.46761    2.50063  27.9%     -    0s
     0     0    2.50108    0  143    3.46761    2.50108  27.9%     -    0s
     0     0    2.50117    0  140    3.46761    2.50117  27.9%     -    0s
     0     0    2.51641    0  132    3.46761    2.51641  27.4%     -    0s
     0     0    2.51957    0  171    3.46761    2.51957  27.3%     -    0s
     0     0    2.52067    0  172    3.46761    2.52067  27.3%     -    0s
     0     0    2.52108    0  167    3.46761    2.52108  27.3%     -    0s
     0     0    2.52146    0  170    3.46761    2.52146  27.3%     -    0s
     0     0    2.52164    0  155    3.46761    2.52164  27.3%     -    0s
     0     0    2.52664    0  153    3.46761    2.52664  27.1%     -    0s
H    0     0                       3.2651579    2.52664  22.6%     -    0s
     0     0    2.52800    0  138    3.26516    2.52800  22.6%     -    0s
     0     0    2.52816    0  157    3.26516    2.52816  22.6%     -    0s
     0     0    2.53324    0  121    3.26516    2.53324  22.4%     -    0s
     0     0    2.53364    0  120    3.26516    2.53364  22.4%     -    0s
     0     0    2.53701    0  125    3.26516    2.53701  22.3%     -    0s
     0     0    2.53701    0  125    3.26516    2.53701  22.3%     -    1s
H    0     0                       3.1195790    2.53701  18.7%     -    1s
     0     2    2.53716    0  122    3.11958    2.53716  18.7%     -    1s
H   52    52                       3.1195789    2.54058  18.6%   205    2s
H   78    74                       3.1158948    2.54058  18.5%   169    2s
H  262   219                       3.1156404    2.54884  18.2%   104    4s
H  383   300                       3.0985702    2.55002  17.7%  96.7    4s
H  397   303                       3.0862807    2.55117  17.3%  96.8    5s
H  409   306                       3.0862807    2.55363  17.3%   101    5s
H  435   279                       2.9940702    2.55363  14.7%   101    5s
*  503   313              51       2.9626491    2.55457  13.8%  96.3    5s
*  504   287              51       2.9404562    2.55457  13.1%  96.1    5s
*  506   280              51       2.9372632    2.55457  13.0%  95.8    5s
   567   317    2.91605   42  206    2.93726    2.63355  10.3%  86.0   10s
H  605   324                       2.8725702    2.66081  7.37%  80.6   12s
H  617   316                       2.8553509    2.66148  6.79%   109   13s
   632   326    2.85535   22  226    2.85535    2.66344  6.72%   106   15s
   694   353    2.74029   53  133    2.85535    2.68916  5.82%   135   20s
  1048   371    2.71698   33   86    2.85535    2.69611  5.58%   139   25s
  1566   390    2.74974   42  106    2.85535    2.73503  4.21%   130   30s
  2092   565    2.81058   40   77    2.85535    2.74927  3.71%   128   35s
  2633   727    2.81238   58   61    2.85535    2.75856  3.39%   125   40s
  3243   873    2.84133   57   87    2.85535    2.77003  2.99%   123   45s
  3850   984    2.81449   42   64    2.85535    2.78250  2.55%   122   50s
  4356   945    2.80214   40  129    2.85535    2.79294  2.19%   122   55s
  4935   919    2.82351   63   93    2.85535    2.80173  1.88%   122   60s
  5643   743    2.84146   59   77    2.85535    2.81591  1.38%   120   65s
  6404   458     cutoff   63         2.85535    2.82890  0.93%   117   70s

Cutting planes:
  Gomory: 5
  Cover: 58
  Implied bound: 1
  Clique: 5
  MIR: 154
  StrongCG: 5
  Flow cover: 403
  GUB cover: 5
  Inf proof: 1
  Zero half: 1
  RLT: 9
  Relax-and-lift: 160

Explored 7121 nodes (797441 simplex iterations) in 72.92 seconds
Thread count was 1 (of 4 available processors)

Solution count 10: 2.85535 2.87257 2.93726 ... 3.11564

Optimal solution found (tolerance 1.00e-04)
Best objective 2.855350889357e+00, best bound 2.855350889357e+00, gap 0.0000%
